# Generated by ConicBenchmarkUtilities.jl
VER
2

OBJSENSE
MIN

VAR
174 1
F 174

INT
69
11
12
13
14
15
16
17
18
19
20
21
22
23
24
25
26
27
28
29
30
31
32
33
34
40
41
42
43
44
113
114
115
116
117
118
119
120
122
123
124
126
127
128
130
131
132
134
135
136
138
139
140
142
143
144
146
147
148
150
151
152
153
154
155
156
157
158
159
160

CON
537 531
L= 1
L= 1
L= 1
L= 1
L= 1
L= 1
L= 1
L= 1
L= 1
L= 1
L= 1
L= 1
L= 1
L= 1
L= 1
L= 1
L= 1
L= 1
L= 1
L= 1
L= 1
L= 1
L= 1
L= 1
L= 1
L= 1
L= 1
L= 1
L= 1
L= 1
L= 1
L= 1
L= 1
L= 1
L= 1
L= 1
L+ 1
L+ 1
L+ 1
L+ 1
L+ 1
L+ 1
L+ 1
L+ 1
L+ 1
L+ 1
L+ 1
L= 1
L= 1
L= 1
L= 1
L= 1
L= 1
L= 1
L= 1
L= 1
L= 1
L= 1
L= 1
L= 1
L= 1
L= 1
L= 1
L= 1
L= 1
L= 1
L= 1
L+ 1
L+ 1
L+ 1
L+ 1
L+ 1
L+ 1
L+ 1
L+ 1
L+ 1
L+ 1
L+ 1
L+ 1
L+ 1
L+ 1
L+ 1
L+ 1
L+ 1
L+ 1
L+ 1
L+ 1
L+ 1
L+ 1
L+ 1
L+ 1
L+ 1
L+ 1
L+ 1
L+ 1
L+ 1
L+ 1
L+ 1
L+ 1
L+ 1
L+ 1
L+ 1
L+ 1
L+ 1
L+ 1
L+ 1
L+ 1
L+ 1
L+ 1
L+ 1
L+ 1
L+ 1
L+ 1
L+ 1
L+ 1
L+ 1
L+ 1
L+ 1
L+ 1
L+ 1
L+ 1
L+ 1
L+ 1
L+ 1
L+ 1
L+ 1
L+ 1
L+ 1
L+ 1
L+ 1
L+ 1
L+ 1
L+ 1
L+ 1
L+ 1
L+ 1
L+ 1
L+ 1
L+ 1
L+ 1
L+ 1
L+ 1
L+ 1
L+ 1
L+ 1
L+ 1
L+ 1
L+ 1
L+ 1
L+ 1
L+ 1
L+ 1
L+ 1
L+ 1
L+ 1
L+ 1
L+ 1
L+ 1
L+ 1
L+ 1
L+ 1
L+ 1
L+ 1
L+ 1
L+ 1
L+ 1
L+ 1
L+ 1
L+ 1
L+ 1
L+ 1
L+ 1
L+ 1
L+ 1
L+ 1
L+ 1
L+ 1
L+ 1
L+ 1
L+ 1
L+ 1
L+ 1
L+ 1
L+ 1
L+ 1
L+ 1
L+ 1
L+ 1
L+ 1
L+ 1
L+ 1
L+ 1
L+ 1
L+ 1
L+ 1
L+ 1
L+ 1
L+ 1
L+ 1
L+ 1
L+ 1
L+ 1
L+ 1
L+ 1
L+ 1
L+ 1
L+ 1
L+ 1
L+ 1
L+ 1
L+ 1
L+ 1
L+ 1
L+ 1
L+ 1
L+ 1
L+ 1
L+ 1
L+ 1
L+ 1
L+ 1
L+ 1
L+ 1
L+ 1
L+ 1
L+ 1
L+ 1
L+ 1
L+ 1
L+ 1
L+ 1
L+ 1
L+ 1
L+ 1
L+ 1
L+ 1
L+ 1
L+ 1
L+ 1
L+ 1
L+ 1
L+ 1
L+ 1
L+ 1
L+ 1
L+ 1
L+ 1
L= 1
L= 1
L= 1
L= 1
L= 1
L= 1
L= 1
L= 1
L= 1
L= 1
L= 1
L= 1
L= 1
L= 1
L= 1
L= 1
EXP 3
L+ 1
L+ 1
L+ 1
EXP 3
L+ 1
L+ 1
L+ 1
L+ 1
L+ 1
L+ 1
L+ 1
EXP 3
L+ 1
L+ 1
L+ 1
L+ 1
L+ 1
L+ 1
L+ 1
L+ 1
L+ 1
L+ 1
L= 1
L+ 1
L+ 1
L+ 1
L+ 1
L+ 1
L+ 1
L+ 1
L+ 1
L+ 1
L+ 1
L+ 1
L+ 1
L+ 1
L+ 1
L+ 1
L+ 1
L+ 1
L+ 1
L+ 1
L+ 1
L+ 1
L+ 1
L+ 1
L+ 1
L+ 1
L+ 1
L+ 1
L+ 1
L+ 1
L+ 1
L+ 1
L+ 1
L+ 1
L+ 1
L+ 1
L+ 1
L+ 1
L+ 1
L+ 1
L+ 1
L+ 1
L+ 1
L+ 1
L+ 1
L+ 1
L+ 1
L+ 1
L+ 1
L+ 1
L+ 1
L+ 1
L+ 1
L+ 1
L+ 1
L+ 1
L+ 1
L+ 1
L+ 1
L+ 1
L+ 1
L+ 1
L+ 1
L+ 1
L+ 1
L+ 1
L+ 1
L+ 1
L+ 1
L+ 1
L+ 1
L+ 1
L+ 1
L+ 1
L+ 1
L+ 1
L+ 1
L+ 1
L+ 1
L+ 1
L+ 1
L+ 1
L+ 1
L+ 1
L+ 1
L+ 1
L+ 1
L+ 1
L+ 1
L+ 1
L+ 1
L+ 1
L+ 1
L+ 1
L+ 1
L+ 1
L+ 1
L+ 1
L+ 1
L+ 1
L+ 1
L+ 1
L+ 1
L+ 1
L+ 1
L+ 1
L+ 1
L+ 1
L+ 1
L+ 1
L+ 1
L+ 1
L+ 1
L+ 1
L+ 1
L+ 1
L+ 1
L+ 1
L+ 1
L+ 1
L+ 1
L+ 1
L+ 1
L+ 1
L+ 1
L+ 1
L+ 1
L+ 1
L+ 1
L+ 1
L+ 1
L+ 1
L+ 1
L+ 1
L+ 1
L+ 1
L+ 1
L+ 1
L+ 1
L+ 1
L+ 1
L+ 1
L+ 1
L+ 1
L+ 1
L+ 1
L+ 1
L+ 1
L+ 1
L+ 1
L+ 1
L+ 1
L+ 1
L+ 1
L+ 1
L+ 1
L+ 1
L+ 1
L+ 1
L+ 1
L+ 1
L+ 1
L+ 1
L+ 1
L+ 1
L+ 1
L+ 1
L+ 1
L+ 1
L+ 1
L+ 1
L+ 1
L+ 1
L+ 1
L+ 1
L+ 1
L+ 1
L+ 1
L+ 1
L+ 1
L+ 1
L+ 1
L+ 1
L+ 1
L+ 1
L+ 1
L+ 1
L+ 1
L+ 1
L+ 1
L+ 1
L+ 1
L+ 1
L+ 1
L+ 1
L+ 1
L+ 1
L+ 1
L+ 1
L+ 1
L+ 1
L+ 1
L+ 1
L+ 1
L+ 1
L+ 1
L+ 1
L+ 1
L+ 1
L+ 1
L+ 1
L+ 1
L+ 1
L+ 1
L+ 1
L+ 1
L+ 1
L+ 1
L+ 1
L+ 1
L+ 1
L+ 1
L+ 1
L+ 1
L+ 1
L+ 1
L+ 1
L+ 1
L+ 1
L+ 1
L+ 1
L+ 1
L+ 1
L+ 1
L+ 1
L+ 1
L+ 1
L+ 1
L+ 1
L+ 1
L+ 1
L+ 1
L+ 1
L+ 1
L+ 1

OBJACOORD
1
45 -1.0

ACOORD
993
0 0 -4.0
1 0 1.0
42 0 -1.0
47 0 1.0
246 0 -4.0
296 0 1.0
0 1 -8.0
6 1 1.0
43 1 -1.0
49 1 1.0
246 1 -8.0
301 1 1.0
0 2 -5.0
10 2 1.0
44 2 -1.0
51 2 1.0
246 2 -5.0
305 2 1.0
0 3 -8.0
22 3 1.0
45 3 -1.0
55 3 1.0
246 3 -8.0
317 3 1.0
0 4 23.0
26 4 1.0
36 4 1.0
56 4 -1.0
321 4 1.0
0 5 19.0
28 5 1.0
37 5 1.0
57 5 -1.0
323 5 1.0
0 6 -10.0
29 6 1.0
46 6 -1.0
58 6 1.0
246 6 -10.0
324 6 1.0
0 7 2.0
32 7 1.0
38 7 1.0
255 7 -1.0
327 7 1.0
0 8 3.0
33 8 1.0
39 8 1.0
256 8 -1.0
328 8 1.0
0 9 25.0
34 9 1.0
40 9 1.0
257 9 -1.0
329 9 1.0
0 10 24.0
35 10 1.0
41 10 1.0
258 10 -1.0
330 10 1.0
0 11 -6.0
71 11 -148.75
75 11 -148.75
151 11 -25.0
247 11 1.0
384 11 1.0
385 11 -1.0
0 12 -40.0
72 12 -148.75
76 12 -148.75
152 12 15.0
247 12 1.0
386 12 1.0
387 12 -1.0
0 13 -46.0
73 13 -148.75
77 13 -148.75
153 13 15.0
247 13 1.0
388 13 1.0
389 13 -1.0
0 14 -7.0
79 14 -254.045833333333
83 14 -166.25
155 14 -56.0
248 14 1.0
392 14 1.0
393 14 -1.0
0 15 -30.0
80 15 -254.045833333333
84 15 -166.25
156 15 -36.0
248 15 1.0
394 15 1.0
395 15 -1.0
0 16 -37.0
81 16 -254.045833333333
85 16 -166.25
157 16 -36.0
248 16 1.0
396 16 1.0
397 16 -1.0
0 17 -7.0
87 17 -20.4166666666667
91 17 -20.4166666666667
95 17 -20.4166666666667
99 17 -20.4166666666667
159 17 -10.0
249 17 1.0
400 17 1.0
401 17 -1.0
0 18 -15.0
88 18 -20.4166666666667
92 18 -20.4166666666667
96 18 -20.4166666666667
100 18 -20.4166666666667
249 18 1.0
402 18 1.0
403 18 -1.0
0 19 -22.0
89 19 -20.4166666666667
93 19 -20.4166666666667
97 19 -20.4166666666667
101 19 -20.4166666666667
249 19 1.0
404 19 1.0
405 19 -1.0
0 20 -11.0
103 20 -18.75
107 20 -18.75
163 20 -10.0
250 20 1.0
408 20 1.0
409 20 -1.0
0 21 -13.0
104 21 -18.75
108 21 -18.75
164 21 -5.0
250 21 1.0
410 21 1.0
411 21 -1.0
0 22 -24.0
105 22 -18.75
109 22 -18.75
165 22 -5.0
250 22 1.0
412 22 1.0
413 22 -1.0
0 23 -10.0
111 23 -17.8125
115 23 -17.8125
119 23 -17.8125
123 23 -17.8125
167 23 -15.0
251 23 1.0
416 23 1.0
417 23 -1.0
0 24 -13.0
112 24 -17.8125
116 24 -17.8125
120 24 -17.8125
124 24 -17.8125
168 24 -5.0
251 24 1.0
418 24 1.0
419 24 -1.0
0 25 -23.0
113 25 -17.8125
117 25 -17.8125
121 25 -17.8125
125 25 -17.8125
169 25 -5.0
251 25 1.0
420 25 1.0
421 25 -1.0
0 26 -9.0
127 26 -66.9375
131 26 -15.9375
171 26 -29.0
252 26 1.0
424 26 1.0
425 26 -1.0
0 27 -30.0
128 27 -66.9375
132 27 -15.9375
172 27 6.0
252 27 1.0
426 27 1.0
427 27 -1.0
0 28 -39.0
129 28 -66.9375
133 28 -15.9375
173 28 6.0
252 28 1.0
428 28 1.0
429 28 -1.0
0 29 -8.0
135 29 -94.4571428571429
139 29 -57.0
175 29 -29.0
253 29 1.0
432 29 1.0
433 29 -1.0
0 30 -20.0
136 30 -94.4571428571429
140 30 -57.0
176 30 -4.0
253 30 1.0
434 30 1.0
435 30 -1.0
0 31 -28.0
137 31 -94.4571428571429
141 31 -57.0
177 31 -4.0
253 31 1.0
436 31 1.0
437 31 -1.0
0 32 -8.0
143 32 -39.4285714285714
147 32 -39.4285714285714
179 32 -15.0
254 32 1.0
440 32 1.0
441 32 -1.0
0 33 -15.0
144 33 -39.4285714285714
148 33 -39.4285714285714
180 33 5.0
254 33 1.0
442 33 1.0
443 33 -1.0
0 34 -23.0
145 34 -39.4285714285714
149 34 -39.4285714285714
181 34 5.0
254 34 1.0
444 34 1.0
445 34 -1.0
0 35 5.0
261 35 -1.0
517 35 1.0
0 36 -2.0
256 36 -1.0
287 36 0.5
288 36 -0.5
290 36 -1.0
522 36 1.0
523 36 -1.0
0 37 200.0
275 37 -1.0
276 37 1.0
278 37 -1.0
524 37 1.0
0 38 250.0
282 38 -1.0
284 38 -1.0
525 38 1.0
0 39 300.0
285 39 -1.0
286 39 1.0
287 39 -1.0
288 39 1.0
291 39 -1.0
526 39 1.0
0 40 -5.0
266 40 -1.0
267 40 10.0
268 40 2.39789527279837
292 40 1.0
293 40 1.0
294 40 1.0
295 40 1.0
527 40 1.0
528 40 -1.0
0 41 -8.0
272 41 -1.0
273 41 10.0
274 41 2.87747432735804
292 41 1.0
293 41 1.0
294 41 1.0
295 41 1.0
529 41 1.0
530 41 -1.0
0 42 -6.0
275 42 -1.0
276 42 -1.0
277 42 2.87747432735804
278 42 2.15810574551853
293 42 -1.0
531 42 1.0
532 42 -1.0
0 43 -10.0
282 43 -1.0
283 43 2.87747432735804
284 43 2.03277599268042
294 43 -1.0
533 43 1.0
534 43 -1.0
0 44 -6.0
285 44 -1.0
286 44 -1.0
287 44 -1.0
288 44 -1.0
289 44 2.87747432735804
290 44 7.0
291 44 3.5
295 44 -1.0
535 44 1.0
536 44 -1.0
0 45 -1.0
1 46 -0.2
331 46 1.0
2 47 1.0
47 47 -1.0
59 47 1.0
150 47 -1.0
151 47 -1.0
152 47 -1.0
153 47 -1.0
297 47 1.0
2 48 -0.2
70 48 0.8
71 48 0.85
72 48 0.8
73 48 0.85
74 48 -0.8
75 48 -0.85
76 48 -0.8
77 48 -0.85
332 48 1.0
3 49 1.0
47 49 -1.0
60 49 1.0
154 49 -1.0
155 49 -1.0
156 49 -1.0
157 49 -1.0
298 49 1.0
3 50 -0.2
67 50 -1.0
78 50 0.9
79 50 0.95
80 50 0.9
81 50 0.95
82 50 -0.9
83 50 -0.95
84 50 -0.9
85 50 -0.95
333 50 1.0
4 51 1.0
48 51 1.0
59 51 -1.0
299 51 1.0
4 52 -0.2
70 52 -1.0
71 52 -1.0
72 52 -1.0
73 52 -1.0
74 52 1.0
75 52 1.0
76 52 1.0
77 52 1.0
334 52 1.0
5 53 1.0
48 53 -1.0
255 53 1.0
300 53 1.0
5 54 -0.2
335 54 1.0
6 55 -0.5
336 55 1.0
7 56 1.0
49 56 -1.0
60 56 1.0
154 56 -1.0
155 56 -1.0
156 56 -1.0
157 56 -1.0
302 56 1.0
7 57 -0.5
67 57 1.0
337 57 1.0
8 58 1.0
50 58 1.0
60 58 -1.0
303 58 1.0
8 59 -0.7
78 59 -1.0
79 59 -1.0
80 59 -1.0
81 59 -1.0
82 59 1.0
83 59 1.0
84 59 1.0
85 59 1.0
338 59 1.0
9 60 1.0
50 60 -1.0
256 60 1.0
304 60 1.0
9 61 -0.7
339 61 1.0
10 62 -1.2
340 62 1.0
11 63 1.0
51 63 -1.0
61 63 1.0
158 63 -1.0
159 63 -1.0
160 63 -1.0
161 63 -1.0
306 63 1.0
11 64 -1.2
86 64 0.85
87 64 0.98
88 64 0.85
89 64 0.98
90 64 0.85
91 64 0.98
92 64 0.85
93 64 0.98
94 64 -0.85
95 64 -0.98
96 64 -0.85
97 64 -0.98
98 64 -0.85
99 64 -0.98
100 64 -0.85
101 64 -0.98
341 64 1.0
12 65 1.0
49 65 1.0
61 65 -1.0
307 65 1.0
12 66 -0.5
86 66 -1.0
87 66 -1.0
88 66 -1.0
89 66 -1.0
94 66 1.0
95 66 1.0
96 66 1.0
97 66 1.0
342 66 1.0
13 67 1.0
50 67 1.0
61 67 -1.0
308 67 1.0
13 68 -0.7
90 68 -1.0
91 68 -1.0
92 68 -1.0
93 68 -1.0
98 68 1.0
99 68 1.0
100 68 1.0
101 68 1.0
343 68 1.0
14 69 1.0
51 69 -1.0
62 69 1.0
162 69 -1.0
163 69 -1.0
164 69 -1.0
165 69 -1.0
309 69 1.0
14 70 -1.2
102 70 0.85
103 70 0.9
104 70 0.85
105 70 0.9
106 70 -0.85
107 70 -0.9
108 70 -0.85
109 70 -0.9
344 70 1.0
15 71 1.0
52 71 1.0
62 71 -1.0
310 71 1.0
15 72 -1.2
102 72 -1.0
103 72 -1.0
104 72 -1.0
105 72 -1.0
106 72 1.0
107 72 1.0
108 72 1.0
109 72 1.0
345 72 1.0
16 73 1.0
52 73 -1.0
64 73 1.0
170 73 -1.0
171 73 -1.0
172 73 -1.0
173 73 -1.0
311 73 1.0
16 74 -1.2
68 74 -1.0
126 74 0.8
127 74 0.85
128 74 0.8
129 74 0.85
130 74 -0.8
131 74 -0.85
132 74 -0.8
133 74 -0.85
346 74 1.0
17 75 1.0
52 75 -1.0
63 75 1.0
166 75 -1.0
167 75 -1.0
168 75 -1.0
169 75 -1.0
312 75 1.0
17 76 -1.2
110 76 0.75
111 76 0.95
112 76 0.9
113 76 0.95
114 76 0.75
115 76 0.95
116 76 0.9
117 76 0.95
118 76 -0.75
119 76 -0.95
120 76 -0.9
121 76 -0.95
122 76 -0.75
123 76 -0.95
124 76 -0.9
125 76 -0.95
347 76 1.0
18 77 1.0
53 77 1.0
63 77 -1.0
313 77 1.0
18 78 -0.3
110 78 -1.0
111 78 -1.0
112 78 -1.0
113 78 -1.0
118 78 1.0
119 78 1.0
120 78 1.0
121 78 1.0
348 78 1.0
19 79 1.0
54 79 1.0
63 79 -1.0
314 79 1.0
19 80 -0.9
114 80 -1.0
115 80 -1.0
116 80 -1.0
117 80 -1.0
122 80 1.0
123 80 1.0
124 80 1.0
125 80 1.0
349 80 1.0
20 81 1.0
53 81 -1.0
257 81 1.0
315 81 1.0
20 82 -0.3
350 82 1.0
21 83 1.0
54 83 -1.0
258 83 1.0
316 83 1.0
21 84 -0.9
351 84 1.0
22 85 -0.4
352 85 1.0
23 86 1.0
55 86 -1.0
64 86 1.0
170 86 -1.0
171 86 -1.0
172 86 -1.0
173 86 -1.0
318 86 1.0
23 87 -0.4
68 87 1.0
353 87 1.0
24 88 1.0
55 88 -1.0
65 88 1.0
174 88 -1.0
175 88 -1.0
176 88 -1.0
177 88 -1.0
319 88 1.0
24 89 -0.4
69 89 -1.0
134 89 0.85
135 89 0.95
136 89 0.85
137 89 0.95
138 89 -0.85
139 89 -0.95
140 89 -0.85
141 89 -0.95
354 89 1.0
25 90 1.0
56 90 1.0
64 90 -1.0
320 90 1.0
25 91 -1.6
126 91 -1.0
127 91 -1.0
128 91 -1.0
129 91 -1.0
130 91 1.0
131 91 1.0
132 91 1.0
133 91 1.0
355 91 1.0
26 92 -1.6
356 92 1.0
27 93 1.0
57 93 1.0
65 93 -1.0
322 93 1.0
27 94 -1.1
134 94 -1.0
135 94 -1.0
136 94 -1.0
137 94 -1.0
138 94 1.0
139 94 1.0
140 94 1.0
141 94 1.0
357 94 1.0
28 95 -1.1
358 95 1.0
29 96 -0.7
359 96 1.0
30 97 1.0
58 97 -1.0
66 97 1.0
178 97 -1.0
179 97 -1.0
180 97 -1.0
181 97 -1.0
325 97 1.0
30 98 -0.7
142 98 0.8
143 98 0.92
144 98 0.8
145 98 0.92
146 98 -0.8
147 98 -0.92
148 98 -0.8
149 98 -0.92
360 98 1.0
31 99 1.0
65 99 1.0
66 99 -1.0
174 99 -1.0
175 99 -1.0
176 99 -1.0
177 99 -1.0
326 99 1.0
31 100 -0.7
69 100 1.0
142 100 -1.0
143 100 -1.0
144 100 -1.0
145 100 -1.0
146 100 1.0
147 100 1.0
148 100 1.0
149 100 1.0
361 100 1.0
32 101 -0.2
362 101 1.0
33 102 -0.7
363 102 1.0
34 103 -0.3
364 103 1.0
35 104 -0.9
365 104 1.0
59 105 -1.0
366 105 1.0
60 106 -1.0
367 106 1.0
61 107 -1.0
368 107 1.0
62 108 -1.0
369 108 1.0
63 109 -1.0
370 109 1.0
64 110 -1.0
371 110 1.0
65 111 -1.0
372 111 1.0
66 112 -1.0
373 112 1.0
70 113 -148.75
74 113 -148.75
150 113 -25.0
247 113 1.0
382 113 1.0
383 113 -1.0
78 114 -254.045833333333
82 114 -166.25
154 114 -56.0
248 114 1.0
390 114 1.0
391 114 -1.0
86 115 -20.4166666666667
90 115 -20.4166666666667
94 115 -20.4166666666667
98 115 -20.4166666666667
158 115 -10.0
249 115 1.0
398 115 1.0
399 115 -1.0
102 116 -18.75
106 116 -18.75
162 116 -10.0
250 116 1.0
406 116 1.0
407 116 -1.0
110 117 -17.8125
114 117 -17.8125
118 117 -17.8125
122 117 -17.8125
166 117 -15.0
251 117 1.0
414 117 1.0
415 117 -1.0
126 118 -66.9375
130 118 -15.9375
170 118 -29.0
252 118 1.0
422 118 1.0
423 118 -1.0
134 119 -94.4571428571429
138 119 -57.0
174 119 -29.0
253 119 1.0
430 119 1.0
431 119 -1.0
142 120 -39.4285714285714
146 120 -39.4285714285714
178 120 -15.0
254 120 1.0
438 120 1.0
439 120 -1.0
182 121 -1.0
183 121 -1.0
184 121 -1.0
185 121 -1.0
214 121 1.0
215 121 1.0
216 121 1.0
217 121 1.0
246 121 -1.0
374 121 1.0
182 122 -46.0
446 122 1.0
447 122 -1.0
183 123 -40.0
215 123 -6.0
448 123 1.0
449 123 -1.0
184 124 -6.0
216 124 -40.0
450 124 1.0
451 124 -1.0
186 125 -1.0
187 125 -1.0
188 125 -1.0
189 125 -1.0
218 125 1.0
219 125 1.0
220 125 1.0
221 125 1.0
246 125 -1.0
375 125 1.0
186 126 -37.0
454 126 1.0
455 126 -1.0
187 127 -30.0
219 127 -7.0
456 127 1.0
457 127 -1.0
188 128 -7.0
220 128 -30.0
458 128 1.0
459 128 -1.0
190 129 -1.0
191 129 -1.0
192 129 -1.0
193 129 -1.0
222 129 1.0
223 129 1.0
224 129 1.0
225 129 1.0
246 129 -1.0
376 129 1.0
190 130 -22.0
462 130 1.0
463 130 -1.0
191 131 -15.0
223 131 -7.0
464 131 1.0
465 131 -1.0
192 132 -7.0
224 132 -15.0
466 132 1.0
467 132 -1.0
194 133 -1.0
195 133 -1.0
196 133 -1.0
197 133 -1.0
226 133 1.0
227 133 1.0
228 133 1.0
229 133 1.0
246 133 -1.0
377 133 1.0
194 134 -24.0
470 134 1.0
471 134 -1.0
195 135 -13.0
227 135 -11.0
472 135 1.0
473 135 -1.0
196 136 -11.0
228 136 -13.0
474 136 1.0
475 136 -1.0
198 137 -1.0
199 137 -1.0
200 137 -1.0
201 137 -1.0
230 137 1.0
231 137 1.0
232 137 1.0
233 137 1.0
246 137 -1.0
378 137 1.0
198 138 -23.0
478 138 1.0
479 138 -1.0
199 139 -13.0
231 139 -10.0
480 139 1.0
481 139 -1.0
200 140 -10.0
232 140 -13.0
482 140 1.0
483 140 -1.0
202 141 -1.0
203 141 -1.0
204 141 -1.0
205 141 -1.0
234 141 1.0
235 141 1.0
236 141 1.0
237 141 1.0
246 141 -1.0
379 141 1.0
202 142 -39.0
486 142 1.0
487 142 -1.0
203 143 -30.0
235 143 -9.0
488 143 1.0
489 143 -1.0
204 144 -9.0
236 144 -30.0
490 144 1.0
491 144 -1.0
206 145 -1.0
207 145 -1.0
208 145 -1.0
209 145 -1.0
238 145 1.0
239 145 1.0
240 145 1.0
241 145 1.0
246 145 -1.0
380 145 1.0
206 146 -28.0
494 146 1.0
495 146 -1.0
207 147 -20.0
239 147 -8.0
496 147 1.0
497 147 -1.0
208 148 -8.0
240 148 -20.0
498 148 1.0
499 148 -1.0
210 149 -1.0
211 149 -1.0
212 149 -1.0
213 149 -1.0
242 149 1.0
243 149 1.0
244 149 1.0
245 149 1.0
246 149 -1.0
381 149 1.0
210 150 -23.0
502 150 1.0
503 150 -1.0
211 151 -15.0
243 151 -8.0
504 151 1.0
505 151 -1.0
212 152 -8.0
244 152 -15.0
506 152 1.0
507 152 -1.0
217 153 -46.0
452 153 1.0
453 153 -1.0
221 154 -37.0
460 154 1.0
461 154 -1.0
225 155 -22.0
468 155 1.0
469 155 -1.0
229 156 -24.0
476 156 1.0
477 156 -1.0
233 157 -23.0
484 157 1.0
485 157 -1.0
237 158 -39.0
492 158 1.0
493 158 -1.0
241 159 -28.0
500 159 1.0
501 159 -1.0
245 160 -23.0
508 160 1.0
509 160 -1.0
255 161 -1.0
259 161 1.0
510 161 1.0
511 161 -1.0
259 162 -1.0
263 162 1.0
267 162 -1.0
512 162 1.0
259 163 -1.0
269 163 1.0
273 163 -1.0
513 163 1.0
260 164 -1.0
266 164 -1.0
268 164 -1.0
514 164 1.0
260 165 -1.0
272 165 -1.0
274 165 -1.0
515 165 1.0
260 166 1.0
261 166 1.0
516 166 1.0
261 167 -1.0
262 167 1.0
518 167 1.0
262 168 -1.0
275 168 0.75
276 168 -0.75
277 168 -1.0
519 168 1.0
262 169 -1.0
279 169 1.0
283 169 -1.0
520 169 1.0
262 170 -1.0
285 170 1.0
286 170 -1.0
289 170 -1.0
521 170 1.0
265 171 1.0
266 171 1.0
271 172 1.0
272 172 1.2
281 173 1.0
282 173 1.5

BCOORD
251
36 -0.4
37 -0.3
38 -0.2
39 -0.5
40 -0.2
41 -0.3
42 35.0
43 36.0
44 25.0
45 24.0
46 30.0
70 148.75
71 148.75
72 148.75
73 148.75
74 148.75
75 148.75
76 148.75
77 148.75
78 254.045833333333
79 254.045833333333
80 254.045833333333
81 254.045833333333
82 166.25
83 166.25
84 166.25
85 166.25
86 20.4166666666667
87 20.4166666666667
88 20.4166666666667
89 20.4166666666667
90 20.4166666666667
91 20.4166666666667
92 20.4166666666667
93 20.4166666666667
94 20.4166666666667
95 20.4166666666667
96 20.4166666666667
97 20.4166666666667
98 20.4166666666667
99 20.4166666666667
100 20.4166666666667
101 20.4166666666667
102 18.75
103 18.75
104 18.75
105 18.75
106 18.75
107 18.75
108 18.75
109 18.75
110 17.8125
111 17.8125
112 17.8125
113 17.8125
114 17.8125
115 17.8125
116 17.8125
117 17.8125
118 17.8125
119 17.8125
120 17.8125
121 17.8125
122 17.8125
123 17.8125
124 17.8125
125 17.8125
126 66.9375
127 66.9375
128 66.9375
129 66.9375
130 15.9375
131 15.9375
132 15.9375
133 15.9375
134 94.4571428571429
135 94.4571428571429
136 94.4571428571429
137 94.4571428571429
138 57.0
139 57.0
140 57.0
141 57.0
142 39.4285714285714
143 39.4285714285714
144 39.4285714285714
145 39.4285714285714
146 39.4285714285714
147 39.4285714285714
148 39.4285714285714
149 39.4285714285714
150 35.0
151 35.0
152 35.0
153 35.0
154 96.0
155 96.0
156 96.0
157 96.0
158 25.0
159 25.0
160 25.0
161 25.0
162 25.0
163 25.0
164 25.0
165 25.0
166 25.0
167 25.0
168 25.0
169 25.0
170 49.0
171 49.0
172 49.0
173 49.0
174 54.0
175 54.0
176 54.0
177 54.0
178 30.0
179 30.0
180 30.0
181 30.0
182 46.0
183 46.0
184 46.0
185 46.0
186 37.0
187 37.0
188 37.0
189 37.0
190 22.0
191 22.0
192 22.0
193 22.0
194 24.0
195 24.0
196 24.0
197 24.0
198 23.0
199 23.0
200 23.0
201 23.0
202 39.0
203 39.0
204 39.0
205 39.0
206 28.0
207 28.0
208 28.0
209 28.0
210 23.0
211 23.0
212 23.0
213 23.0
246 4000.0
247 -1.0
248 -1.0
249 -1.0
250 -1.0
251 -1.0
252 -1.0
253 -1.0
254 -1.0
263 1.0
264 1.0
266 1.0
269 1.0
270 1.0
272 1.0
275 1.0
276 1.0
279 1.0
280 1.0
282 1.0
285 1.0
286 1.0
287 1.0
288 1.0
292 -1.0
383 1.0
385 1.0
387 1.0
389 1.0
391 1.0
393 1.0
395 1.0
397 1.0
399 1.0
401 1.0
403 1.0
405 1.0
407 1.0
409 1.0
411 1.0
413 1.0
415 1.0
417 1.0
419 1.0
421 1.0
423 1.0
425 1.0
427 1.0
429 1.0
431 1.0
433 1.0
435 1.0
437 1.0
439 1.0
441 1.0
443 1.0
445 1.0
447 1.0
449 1.0
451 1.0
453 1.0
455 1.0
457 1.0
459 1.0
461 1.0
463 1.0
465 1.0
467 1.0
469 1.0
471 1.0
473 1.0
475 1.0
477 1.0
479 1.0
481 1.0
483 1.0
485 1.0
487 1.0
489 1.0
491 1.0
493 1.0
495 1.0
497 1.0
499 1.0
501 1.0
503 1.0
505 1.0
507 1.0
509 1.0
511 10.0
523 7.0
528 1.0
530 1.0
532 1.0
534 1.0
536 1.0
